
Gurobi 11.0.3 (linux64) logging started Mon Aug 25 16:30:54 2025

Set parameter LogFile to value "/home/yihong/Coding/OR_SUC/SUC_epstheta_results_bigM100000_thread4/case24_ieee_rts_theta0.001_epsilon0.2_gurobi_seed70000_num_gen100_N_WDR50_load_scaling_factor1_ori_eps_T5quadra_cost_bc1.03.txt"
Set parameter TimeLimit to value 3600
Gurobi Optimizer version 11.0.3 build v11.0.3rc0 (linux64 - "Ubuntu 20.04.6 LTS")

CPU model: AMD EPYC 7532 32-Core Processor, instruction set [SSE2|AVX|AVX2]
Thread count: 64 physical cores, 128 logical processors, using up to 4 threads

Academic license 2399124 - for non-commercial use only - registered to yi___@ed.ac.uk
Optimize a model with 13497 rows, 6251 columns and 483422 nonzeros
Model fingerprint: 0xb405ca4b
Model has 500 quadratic constraints
Variable types: 5751 continuous, 500 integer (500 binary)
Coefficient statistics:
  Matrix range     [3e-04, 2e+03]
  QMatrix range    [2e-03, 8e-03]
  QLMatrix range   [5e-01, 6e+01]
  Objective range  [1e+00, 1e+00]
  Bounds range     [1e+00, 1e+00]
  RHS range        [5e-02, 9e+03]
Presolve removed 11288 rows and 2758 columns
Presolve time: 0.15s
Presolved: 2209 rows, 3493 columns, 15120 nonzeros
Presolved model has 500 quadratic constraint(s)
Variable types: 2993 continuous, 500 integer (500 binary)

Root relaxation: objective 5.505152e+03, 1701 iterations, 0.03 seconds (0.04 work units)

    Nodes    |    Current Node    |     Objective Bounds      |     Work
 Expl Unexpl |  Obj  Depth IntInf | Incumbent    BestBd   Gap | It/Node Time

     0     0 5505.15196    0    5          - 5505.15196      -     -    0s
H    0     0                    182272.25407 5505.15196  97.0%     -    0s
     0     0 91103.7707    0    6 182272.254 91103.7707  50.0%     -    0s
     0     0 162959.117    0    5 182272.254 162959.117  10.6%     -    0s
     0     0 162972.068    0    5 182272.254 162972.068  10.6%     -    0s
     0     0 162972.068    0    5 182272.254 162972.068  10.6%     -    0s
     0     0 162972.068    0    5 182272.254 162972.068  10.6%     -    0s
     0     2 162972.068    0    5 182272.254 162972.068  10.6%     -    1s
H   17    17                    163000.98791 162981.557  0.01%  25.2    1s
*   17    17               4    163000.98791 162981.557  0.01%  29.1    1s

Cutting planes:
  Implied bound: 5

Explored 19 nodes (4077 simplex iterations) in 1.75 seconds (1.46 work units)
Thread count was 4 (of 128 available processors)

Solution count 2: 163001 182272 

Optimal solution found (tolerance 1.00e-03)
Warning: max constraint violation (2.0982e-08) exceeds tolerance
Best objective 1.630009879132e+05, best bound 1.629815566949e+05, gap 0.0119%

Gurobi 11.0.3 (linux64) logging started Mon Aug 25 16:30:56 2025

Set parameter LogFile to value "/home/yihong/Coding/OR_SUC/SUC_epstheta_results_bigM100000_thread4/case24_ieee_rts_theta0.001_epsilon0.2_gurobi_seed70000_num_gen100_N_WDR50_load_scaling_factor1_ori_eps_T5quadra_cost_bc1.03.txt"
Set parameter TimeLimit to value 3600
Gurobi Optimizer version 11.0.3 build v11.0.3rc0 (linux64 - "Ubuntu 20.04.6 LTS")

CPU model: AMD EPYC 7532 32-Core Processor, instruction set [SSE2|AVX|AVX2]
Thread count: 64 physical cores, 128 logical processors, using up to 4 threads

Academic license 2399124 - for non-commercial use only - registered to yi___@ed.ac.uk
Optimize a model with 28707 rows, 6252 columns and 2129551 nonzeros
Model fingerprint: 0x9f452d9b
Model has 501 quadratic constraints
Variable types: 5752 continuous, 500 integer (500 binary)
Coefficient statistics:
  Matrix range     [3e-04, 2e+03]
  QMatrix range    [2e-03, 5e+01]
  QLMatrix range   [5e-01, 6e+01]
  Objective range  [1e+00, 1e+00]
  Bounds range     [2e-01, 1e+00]
  RHS range        [4e-02, 2e+05]
  QRHS range       [5e-02, 5e-02]
Presolve removed 8575 rows and 2348 columns
Presolve time: 1.89s
Presolved: 20634 rows, 4405 columns, 431268 nonzeros
Presolved model has 500 quadratic constraint(s)
Presolved model has 1 bilinear constraint(s)
Warning: Model contains variables with very large bounds participating
         in product terms.
         Presolve was not able to compute smaller bounds for these variables.
         Consider bounding these variables or reformulating the model.


Solving non-convex MIQCP

Variable types: 3901 continuous, 504 integer (504 binary)

Root simplex log...

Iteration    Objective       Primal Inf.    Dual Inf.      Time
     834    4.8050554e-02   3.302763e+04   0.000000e+00      5s
    2373    0.0000000e+00   0.000000e+00   0.000000e+00      5s

Root relaxation: objective 0.000000e+00, 2373 iterations, 0.48 seconds (1.39 work units)

    Nodes    |    Current Node    |     Objective Bounds      |     Work
 Expl Unexpl |  Obj  Depth IntInf | Incumbent    BestBd   Gap | It/Node Time

     0     0    0.00000    0    5          -    0.00000      -     -    5s
     0     0    0.00000    0    6          -    0.00000      -     -    6s
     0     0    0.00000    0    1          -    0.00000      -     -    6s
H    0     0                       0.0005074    0.00000   100%     -  758s
H    0     0                       0.0002301    0.00000   100%     -  758s
H    0     0                       0.0001448    0.00000   100%     -  758s
H    0     0                       0.0001270    0.00000   100%     -  758s

Cutting planes:
  Implied bound: 10
  MIR: 5
  Flow cover: 6
  PSD: 2

Explored 1 nodes (3822 simplex iterations) in 758.25 seconds (339.77 work units)
Thread count was 4 (of 128 available processors)

Solution count 4: 0.00012696 0.000144798 0.000230069 0.000507363 

Optimal solution found (tolerance 1.00e-03)
Best objective 1.269604035679e-04, best bound 1.269585952157e-04, gap 0.0014%
